c Random CNF formula
p cnf 10 10
-3 10 2 5 8 7 4 1 6 -9 0
4 -8 5 -1 7 -9 2 -3 6 -10 0
6 2 8 9 -3 7 1 5 -10 -4 0
-9 10 -1 7 -3 4 -8 -6 2 -5 0
-5 2 -3 -9 -8 6 -1 7 -4 10 0
9 -8 4 1 -7 -10 -6 5 -3 2 0
10 -8 3 -9 -1 -7 4 6 2 -5 0
7 -4 -5 -2 -9 6 8 1 -3 10 0
2 -6 -1 -7 3 -10 -9 4 5 -8 0
-10 7 3 2 -8 -4 -9 -5 -6 1 0